(declare-fun var0 () String)
(assert (RegexIn var0 (RegexConcat (RegexStar (RegexPlus (Str2Reg "ll"))) (RegexConcat (RegexPlus (RegexUnion (Str2Reg "jjj") (Str2Reg "kkk"))) (RegexConcat (RegexUnion (RegexUnion (Str2Reg "gg") (Str2Reg "hh")) (RegexStar (Str2Reg "ii"))) (RegexConcat (RegexStar (RegexUnion (Str2Reg "eee") (Str2Reg "ff"))) (RegexConcat (RegexPlus (RegexStar (Str2Reg "ddd"))) (RegexConcat (RegexPlus (RegexPlus (Str2Reg "ccc"))) (RegexConcat (RegexStar (RegexUnion (Str2Reg "a") (Str2Reg "bbb"))) (RegexConcat (RegexUnion (RegexStar (Str2Reg "77")) (RegexUnion (Str2Reg "88") (Str2Reg "99"))) (RegexConcat (RegexUnion (RegexUnion (Str2Reg "33") (Str2Reg "4")) (RegexUnion (Str2Reg "5") (Str2Reg "6"))) (RegexUnion (RegexPlus (Str2Reg "000")) (RegexUnion (Str2Reg "1") (Str2Reg "222"))))))))))))))
(assert (RegexIn var0 (RegexConcat (RegexPlus (RegexUnion (Str2Reg "m") (Str2Reg "nn"))) (RegexConcat (RegexUnion (RegexUnion (Str2Reg "i") (Str2Reg "j")) (RegexUnion (Str2Reg "k") (Str2Reg "lll"))) (RegexConcat (RegexPlus (RegexPlus (Str2Reg "hhh"))) (RegexConcat (RegexUnion (RegexPlus (Str2Reg "ff")) (RegexPlus (Str2Reg "g"))) (RegexConcat (RegexUnion (RegexUnion (Str2Reg "c") (Str2Reg "dd")) (RegexPlus (Str2Reg "ee"))) (RegexConcat (RegexUnion (RegexPlus (Str2Reg "9")) (RegexUnion (Str2Reg "aa") (Str2Reg "bb"))) (RegexConcat (RegexUnion (RegexStar (Str2Reg "66")) (RegexUnion (Str2Reg "777") (Str2Reg "88"))) (RegexConcat (RegexUnion (RegexUnion (Str2Reg "333") (Str2Reg "444")) (RegexPlus (Str2Reg "555"))) (RegexConcat (RegexPlus (RegexStar (Str2Reg "2"))) (RegexStar (RegexUnion (Str2Reg "000") (Str2Reg "1"))))))))))))))
(assert (RegexIn var0 (RegexConcat (RegexUnion (RegexStar (Str2Reg "i")) (RegexPlus (Str2Reg "j"))) (RegexConcat (RegexPlus (RegexStar (Str2Reg "hhh"))) (RegexConcat (RegexUnion (RegexUnion (Str2Reg "eee") (Str2Reg "ff")) (RegexStar (Str2Reg "ggg"))) (RegexConcat (RegexPlus (RegexUnion (Str2Reg "c") (Str2Reg "ddd"))) (RegexConcat (RegexPlus (RegexUnion (Str2Reg "a") (Str2Reg "bbb"))) (RegexConcat (RegexStar (RegexUnion (Str2Reg "888") (Str2Reg "99"))) (RegexConcat (RegexUnion (RegexUnion (Str2Reg "5") (Str2Reg "6")) (RegexStar (Str2Reg "77"))) (RegexConcat (RegexUnion (RegexStar (Str2Reg "22")) (RegexUnion (Str2Reg "33") (Str2Reg "444"))) (RegexConcat (RegexPlus (RegexStar (Str2Reg "11"))) (RegexStar (RegexStar (Str2Reg "00"))))))))))))))
(assert (RegexIn var0 (RegexConcat (RegexStar (RegexPlus (Str2Reg "eee"))) (RegexConcat (RegexStar (RegexStar (Str2Reg "d"))) (RegexConcat (RegexPlus (RegexUnion (Str2Reg "b") (Str2Reg "c"))) (RegexConcat (RegexPlus (RegexStar (Str2Reg "aa"))) (RegexConcat (RegexUnion (RegexStar (Str2Reg "8")) (RegexStar (Str2Reg "9"))) (RegexConcat (RegexUnion (RegexUnion (Str2Reg "555") (Str2Reg "666")) (RegexPlus (Str2Reg "7"))) (RegexConcat (RegexStar (RegexPlus (Str2Reg "4"))) (RegexConcat (RegexPlus (RegexStar (Str2Reg "3"))) (RegexConcat (RegexUnion (RegexStar (Str2Reg "1")) (RegexStar (Str2Reg "22"))) (RegexStar (RegexPlus (Str2Reg "000"))))))))))))))
(assert (RegexIn var0 (RegexConcat (RegexUnion (RegexUnion (Str2Reg "mmm") (Str2Reg "nnn")) (RegexPlus (Str2Reg "o"))) (RegexConcat (RegexStar (RegexUnion (Str2Reg "k") (Str2Reg "l"))) (RegexConcat (RegexStar (RegexUnion (Str2Reg "ii") (Str2Reg "jj"))) (RegexConcat (RegexPlus (RegexUnion (Str2Reg "g") (Str2Reg "h"))) (RegexConcat (RegexUnion (RegexUnion (Str2Reg "ccc") (Str2Reg "ddd")) (RegexUnion (Str2Reg "ee") (Str2Reg "fff"))) (RegexConcat (RegexUnion (RegexUnion (Str2Reg "8") (Str2Reg "99")) (RegexUnion (Str2Reg "aa") (Str2Reg "bbb"))) (RegexConcat (RegexPlus (RegexPlus (Str2Reg "77"))) (RegexConcat (RegexStar (RegexUnion (Str2Reg "5") (Str2Reg "666"))) (RegexConcat (RegexUnion (RegexPlus (Str2Reg "22")) (RegexUnion (Str2Reg "3") (Str2Reg "4"))) (RegexUnion (RegexStar (Str2Reg "000")) (RegexStar (Str2Reg "11"))))))))))))))
(assert (RegexIn var0 (RegexConcat (RegexStar (RegexUnion (Str2Reg "gg") (Str2Reg "h"))) (RegexConcat (RegexPlus (RegexPlus (Str2Reg "f"))) (RegexConcat (RegexPlus (RegexStar (Str2Reg "e"))) (RegexConcat (RegexStar (RegexUnion (Str2Reg "c") (Str2Reg "d"))) (RegexConcat (RegexPlus (RegexPlus (Str2Reg "bb"))) (RegexConcat (RegexPlus (RegexPlus (Str2Reg "aa"))) (RegexConcat (RegexUnion (RegexStar (Str2Reg "7")) (RegexUnion (Str2Reg "888") (Str2Reg "99"))) (RegexConcat (RegexPlus (RegexStar (Str2Reg "66"))) (RegexConcat (RegexUnion (RegexUnion (Str2Reg "333") (Str2Reg "4")) (RegexPlus (Str2Reg "55"))) (RegexUnion (RegexPlus (Str2Reg "00")) (RegexUnion (Str2Reg "11") (Str2Reg "222"))))))))))))))
(assert (RegexIn var0 (RegexConcat (RegexUnion (RegexUnion (Str2Reg "gg") (Str2Reg "h")) (RegexPlus (Str2Reg "iii"))) (RegexConcat (RegexStar (RegexUnion (Str2Reg "e") (Str2Reg "fff"))) (RegexConcat (RegexPlus (RegexPlus (Str2Reg "d"))) (RegexConcat (RegexStar (RegexUnion (Str2Reg "bbb") (Str2Reg "c"))) (RegexConcat (RegexPlus (RegexUnion (Str2Reg "99") (Str2Reg "aa"))) (RegexConcat (RegexStar (RegexStar (Str2Reg "888"))) (RegexConcat (RegexPlus (RegexUnion (Str2Reg "6") (Str2Reg "7"))) (RegexConcat (RegexUnion (RegexStar (Str2Reg "333")) (RegexUnion (Str2Reg "44") (Str2Reg "5"))) (RegexConcat (RegexStar (RegexPlus (Str2Reg "222"))) (RegexPlus (RegexUnion (Str2Reg "000") (Str2Reg "11"))))))))))))))
(assert (RegexIn var0 (RegexConcat (RegexStar (RegexStar (Str2Reg "ggg"))) (RegexConcat (RegexUnion (RegexPlus (Str2Reg "ddd")) (RegexUnion (Str2Reg "eee") (Str2Reg "ff"))) (RegexConcat (RegexPlus (RegexPlus (Str2Reg "c"))) (RegexConcat (RegexUnion (RegexUnion (Str2Reg "9") (Str2Reg "aaa")) (RegexPlus (Str2Reg "bbb"))) (RegexConcat (RegexPlus (RegexStar (Str2Reg "888"))) (RegexConcat (RegexUnion (RegexPlus (Str2Reg "66")) (RegexPlus (Str2Reg "7"))) (RegexConcat (RegexStar (RegexUnion (Str2Reg "444") (Str2Reg "5"))) (RegexConcat (RegexStar (RegexStar (Str2Reg "33"))) (RegexConcat (RegexPlus (RegexPlus (Str2Reg "2"))) (RegexStar (RegexUnion (Str2Reg "000") (Str2Reg "11"))))))))))))))
(assert (RegexIn var0 (RegexConcat (RegexPlus (RegexPlus (Str2Reg "jjj"))) (RegexConcat (RegexUnion (RegexPlus (Str2Reg "gg")) (RegexUnion (Str2Reg "h") (Str2Reg "ii"))) (RegexConcat (RegexPlus (RegexUnion (Str2Reg "ee") (Str2Reg "f"))) (RegexConcat (RegexStar (RegexPlus (Str2Reg "d"))) (RegexConcat (RegexUnion (RegexPlus (Str2Reg "bb")) (RegexStar (Str2Reg "cc"))) (RegexConcat (RegexPlus (RegexUnion (Str2Reg "9") (Str2Reg "aaa"))) (RegexConcat (RegexUnion (RegexPlus (Str2Reg "7")) (RegexPlus (Str2Reg "888"))) (RegexConcat (RegexPlus (RegexUnion (Str2Reg "5") (Str2Reg "666"))) (RegexConcat (RegexUnion (RegexPlus (Str2Reg "3")) (RegexPlus (Str2Reg "444"))) (RegexUnion (RegexPlus (Str2Reg "0")) (RegexUnion (Str2Reg "11") (Str2Reg "22"))))))))))))))
(assert (RegexIn var0 (RegexConcat (RegexUnion (RegexPlus (Str2Reg "hhh")) (RegexUnion (Str2Reg "i") (Str2Reg "j"))) (RegexConcat (RegexStar (RegexUnion (Str2Reg "f") (Str2Reg "gg"))) (RegexConcat (RegexStar (RegexUnion (Str2Reg "ddd") (Str2Reg "e"))) (RegexConcat (RegexUnion (RegexPlus (Str2Reg "bb")) (RegexPlus (Str2Reg "c"))) (RegexConcat (RegexStar (RegexStar (Str2Reg "a"))) (RegexConcat (RegexPlus (RegexPlus (Str2Reg "999"))) (RegexConcat (RegexPlus (RegexStar (Str2Reg "8"))) (RegexConcat (RegexUnion (RegexPlus (Str2Reg "5")) (RegexUnion (Str2Reg "6") (Str2Reg "777"))) (RegexConcat (RegexUnion (RegexPlus (Str2Reg "33")) (RegexPlus (Str2Reg "4"))) (RegexUnion (RegexStar (Str2Reg "00")) (RegexUnion (Str2Reg "11") (Str2Reg "22"))))))))))))))
(assert (RegexIn var0 (RegexConcat (RegexUnion (RegexStar (Str2Reg "d")) (RegexUnion (Str2Reg "eee") (Str2Reg "f"))) (RegexConcat (RegexStar (RegexStar (Str2Reg "cc"))) (RegexConcat (RegexPlus (RegexPlus (Str2Reg "b"))) (RegexConcat (RegexStar (RegexStar (Str2Reg "aaa"))) (RegexConcat (RegexUnion (RegexStar (Str2Reg "7")) (RegexUnion (Str2Reg "88") (Str2Reg "99"))) (RegexConcat (RegexUnion (RegexPlus (Str2Reg "55")) (RegexPlus (Str2Reg "6"))) (RegexConcat (RegexUnion (RegexStar (Str2Reg "33")) (RegexStar (Str2Reg "4"))) (RegexConcat (RegexPlus (RegexStar (Str2Reg "222"))) (RegexConcat (RegexStar (RegexPlus (Str2Reg "111"))) (RegexPlus (RegexStar (Str2Reg "000"))))))))))))))
(assert (RegexIn var0 (RegexConcat (RegexStar (RegexPlus (Str2Reg "eee"))) (RegexConcat (RegexStar (RegexPlus (Str2Reg "ddd"))) (RegexConcat (RegexStar (RegexUnion (Str2Reg "bb") (Str2Reg "ccc"))) (RegexConcat (RegexStar (RegexUnion (Str2Reg "999") (Str2Reg "a"))) (RegexConcat (RegexUnion (RegexUnion (Str2Reg "66") (Str2Reg "77")) (RegexPlus (Str2Reg "88"))) (RegexConcat (RegexStar (RegexStar (Str2Reg "555"))) (RegexConcat (RegexPlus (RegexStar (Str2Reg "4"))) (RegexConcat (RegexPlus (RegexStar (Str2Reg "33"))) (RegexConcat (RegexStar (RegexPlus (Str2Reg "22"))) (RegexUnion (RegexPlus (Str2Reg "000")) (RegexPlus (Str2Reg "11"))))))))))))))
(assert (RegexIn var0 (RegexConcat (RegexUnion (RegexPlus (Str2Reg "h")) (RegexStar (Str2Reg "ii"))) (RegexConcat (RegexPlus (RegexUnion (Str2Reg "f") (Str2Reg "gg"))) (RegexConcat (RegexPlus (RegexPlus (Str2Reg "ee"))) (RegexConcat (RegexUnion (RegexStar (Str2Reg "c")) (RegexStar (Str2Reg "dd"))) (RegexConcat (RegexStar (RegexPlus (Str2Reg "b"))) (RegexConcat (RegexPlus (RegexUnion (Str2Reg "99") (Str2Reg "aaa"))) (RegexConcat (RegexUnion (RegexUnion (Str2Reg "666") (Str2Reg "77")) (RegexPlus (Str2Reg "88"))) (RegexConcat (RegexUnion (RegexPlus (Str2Reg "33")) (RegexUnion (Str2Reg "4") (Str2Reg "55"))) (RegexConcat (RegexUnion (RegexStar (Str2Reg "11")) (RegexPlus (Str2Reg "22"))) (RegexStar (RegexStar (Str2Reg "000"))))))))))))))
(assert (RegexIn var0 (RegexConcat (RegexUnion (RegexPlus (Str2Reg "kkk")) (RegexPlus (Str2Reg "ll"))) (RegexConcat (RegexPlus (RegexUnion (Str2Reg "iii") (Str2Reg "jj"))) (RegexConcat (RegexUnion (RegexUnion (Str2Reg "ff") (Str2Reg "ggg")) (RegexStar (Str2Reg "hhh"))) (RegexConcat (RegexPlus (RegexStar (Str2Reg "e"))) (RegexConcat (RegexUnion (RegexStar (Str2Reg "c")) (RegexPlus (Str2Reg "ddd"))) (RegexConcat (RegexUnion (RegexUnion (Str2Reg "888") (Str2Reg "99")) (RegexUnion (Str2Reg "aa") (Str2Reg "bbb"))) (RegexConcat (RegexStar (RegexPlus (Str2Reg "7"))) (RegexConcat (RegexUnion (RegexStar (Str2Reg "5")) (RegexStar (Str2Reg "6"))) (RegexConcat (RegexStar (RegexStar (Str2Reg "4"))) (RegexUnion (RegexUnion (Str2Reg "0") (Str2Reg "1")) (RegexUnion (Str2Reg "22") (Str2Reg "3"))))))))))))))
(assert (RegexIn var0 (RegexConcat (RegexPlus (RegexPlus (Str2Reg "fff"))) (RegexConcat (RegexPlus (RegexPlus (Str2Reg "eee"))) (RegexConcat (RegexStar (RegexUnion (Str2Reg "c") (Str2Reg "d"))) (RegexConcat (RegexPlus (RegexStar (Str2Reg "bbb"))) (RegexConcat (RegexUnion (RegexPlus (Str2Reg "9")) (RegexStar (Str2Reg "a"))) (RegexConcat (RegexStar (RegexUnion (Str2Reg "77") (Str2Reg "88"))) (RegexConcat (RegexUnion (RegexPlus (Str2Reg "555")) (RegexStar (Str2Reg "6"))) (RegexConcat (RegexUnion (RegexUnion (Str2Reg "2") (Str2Reg "333")) (RegexStar (Str2Reg "4"))) (RegexConcat (RegexPlus (RegexPlus (Str2Reg "1"))) (RegexStar (RegexStar (Str2Reg "0"))))))))))))))
(assert (RegexIn var0 (RegexConcat (RegexUnion (RegexUnion (Str2Reg "g") (Str2Reg "h")) (RegexUnion (Str2Reg "i") (Str2Reg "jj"))) (RegexConcat (RegexUnion (RegexUnion (Str2Reg "dd") (Str2Reg "eee")) (RegexStar (Str2Reg "ff"))) (RegexConcat (RegexPlus (RegexPlus (Str2Reg "c"))) (RegexConcat (RegexPlus (RegexPlus (Str2Reg "bbb"))) (RegexConcat (RegexUnion (RegexStar (Str2Reg "99")) (RegexPlus (Str2Reg "a"))) (RegexConcat (RegexUnion (RegexPlus (Str2Reg "7")) (RegexPlus (Str2Reg "88"))) (RegexConcat (RegexStar (RegexUnion (Str2Reg "55") (Str2Reg "66"))) (RegexConcat (RegexUnion (RegexStar (Str2Reg "333")) (RegexStar (Str2Reg "444"))) (RegexConcat (RegexUnion (RegexPlus (Str2Reg "111")) (RegexStar (Str2Reg "2"))) (RegexPlus (RegexPlus (Str2Reg "00"))))))))))))))
(check-sat)